outputs/case_465.model.txt
net_worth = 100
capital_level_3_measures_executed_flag = True
capital_level_4_measures_executed_flag = False
improvement_plan_executed = False
CAR = 100
improvement_plan_submitted = False
NWR = 1
violation_loan_limit = False
violate_fund_management_rules = False
violation_loan_approval = False
violate_loan_limit_rules = False
violation_business_scope = False
violation_reserve_rules = False
related_party_definition = True
violate_loan_approval_rules = False
loan_without_sufficient_collateral = False
capital_level_2_measures_executed = False
capital_level = 3
violation_fund_management = False
violate_article_138_2_rules = False
criminal_liability_loan = False
violate_article_138_rules = False
penalty = False
violate_article_143_5_or_143_6_measures = False
violate_article_143 = False
violation_article_143_5_6 = False
capital_level_4_measures_executed = False
violation_article_143 = False
capital_level_3_measures_executed = True